c 1 Colision_L
c 2 Save_S
c 3 Configuration_C
c 4 ARCADE_GAME_MAKER_AGM
c 5 Bowling_W
c 6 Rules_R
c 7 Play_Y
c 8 Services_V
c 9 Pong_N
c 10 Pause_P
c 11 Brickles_B
c 12 Movement_M
c 13 Action_A
p cnf 13 24
4 0
4 -13 0
4 -3 0
4 -6 0
4 -8 0
13 -4 0
3 -4 0
6 -4 0
8 -4 0
6 -11 0
6 -9 0
6 -5 0
11 9 5 -6 0
-11 -9 0
-11 -5 0
-9 -5 0
8 -7 0
8 -10 0
8 -2 0
7 -8 0
10 -8 0
13 -12 0
13 -1 0
12 -13 0
1 -13 0
